Gurobi Optimizer version 9.1.2 build v9.1.2rc0 (linux64)
Thread count: 36 physical cores, 72 logical processors, using up to 32 threads
Optimize a model with 12 rows, 57 columns and 590 nonzeros
Model fingerprint: 0xf32eec78
Model has 47 quadratic constraints
Coefficient statistics:
  Matrix range     [2e-05, 3e+00]
  QMatrix range    [1e+00, 1e+00]
  QLMatrix range   [1e+00, 1e+00]
  Objective range  [8e-03, 7e-01]
  Bounds range     [1e+00, 1e+00]
  RHS range        [1e+00, 1e+00]
Presolve removed 9 rows and 0 columns

Continuous model is non-convex -- solving as a MIP.

Presolve removed 9 rows and 0 columns
Presolve time: 0.00s
Presolved: 189 rows, 57 columns, 443 nonzeros
Presolved model has 47 bilinear constraint(s)
Variable types: 57 continuous, 0 integer (0 binary)

Root relaxation: objective -1.743721e+00, 44 iterations, 0.00 seconds

    Nodes    |    Current Node    |     Objective Bounds      |     Work
 Expl Unexpl |  Obj  Depth IntInf | Incumbent    BestBd   Gap | It/Node Time

     0     0   -1.74372    0   38          -   -1.74372      -     -    0s
H    0     0                       0.6147548   -1.74372   384%     -    0s
     0     0   -1.64739    0    1    0.61475   -1.64739   368%     -    0s
H    0     0                      -1.6450460   -1.64739  0.14%     -    0s
     0     0     cutoff    0        -1.64505   -1.64505  0.00%     -    0s

Cutting planes:
  RLT: 25
  BQP: 3

Explored 1 nodes (76 simplex iterations) in 0.01 seconds
Thread count was 32 (of 72 available processors)

Solution count 2: -1.64505 0.614755 
No other solutions better than -1.64505

Optimal solution found (tolerance 1.00e-04)
Best objective -1.645045978473e+00, best bound -1.645045978473e+00, gap 0.0000%

User-callback calls 78, time in user-callback 0.00 sec
Gurobi Optimizer version 9.1.2 build v9.1.2rc0 (linux64)
Thread count: 36 physical cores, 72 logical processors, using up to 32 threads
Optimize a model with 60 rows, 300 columns and 15500 nonzeros
Model fingerprint: 0xd09b8c89
Model has 250 quadratic constraints
Coefficient statistics:
  Matrix range     [1e-06, 4e+00]
  QMatrix range    [1e+00, 1e+00]
  QLMatrix range   [1e+00, 1e+00]
  Objective range  [2e-04, 1e+00]
  Bounds range     [1e+00, 1e+00]
  RHS range        [1e+00, 1e+00]
Presolve removed 11 rows and 0 columns

Continuous model is non-convex -- solving as a MIP.

Presolve removed 11 rows and 0 columns
Presolve time: 0.01s
Presolved: 1049 rows, 300 columns, 14162 nonzeros
Presolved model has 250 bilinear constraint(s)
Variable types: 300 continuous, 0 integer (0 binary)

Root relaxation: objective -1.859684e+01, 343 iterations, 0.02 seconds

    Nodes    |    Current Node    |     Objective Bounds      |     Work
 Expl Unexpl |  Obj  Depth IntInf | Incumbent    BestBd   Gap | It/Node Time

     0     0  -18.59684    0  189          -  -18.59684      -     -    0s
H    0     0                      -8.6345734  -18.59684   115%     -    0s
     0     0  -17.58942    0  166   -8.63457  -17.58942   104%     -    0s
H    0     0                     -11.6232999  -17.58942  51.3%     -    0s
     0     0  -17.46518    0   95  -11.62330  -17.46518  50.3%     -    0s
H    0     0                     -14.4318140  -17.46518  21.0%     -    0s
     0     0  -17.46499    0   90  -14.43181  -17.46499  21.0%     -    0s
     0     0  -17.46089    0   86  -14.43181  -17.46089  21.0%     -    0s
H    0     0                     -16.1115119  -17.46089  8.38%     -    0s
H    0     0                     -16.1190420  -17.46089  8.32%     -    0s
     0     2  -17.46089    0   86  -16.11904  -17.46089  8.32%     -    0s
* 1583   979              44     -16.1205487  -17.12921  6.26%  69.7    2s
* 1921  1285             102     -16.1355044  -17.12921  6.16%  66.6    2s
* 2775  1953              93     -16.1554167  -17.04217  5.49%  57.2    2s
* 2791  1953              69     -16.5322849  -17.04217  3.08%  56.9    2s
* 4292   400              68     -16.5323082  -17.04217  3.08%  57.6    3s
* 4511   439              69     -16.5328506  -17.04217  3.08%  56.4    3s
* 4516   439              71     -16.5328698  -17.04217  3.08%  56.4    3s
* 4637   482              70     -16.5328703  -17.04217  3.08%  55.8    4s
* 4702   559              84     -16.5377321  -17.04217  3.05%  55.5    4s
* 5008   655              74     -16.5482002  -17.04217  2.99%  54.1    4s
* 5011   655              76     -16.5482193  -17.04217  2.98%  54.1    4s
* 5012   655              76     -16.5482198  -17.04217  2.98%  54.1    4s
* 5027   655              75     -16.5483414  -17.04217  2.98%  54.0    4s
* 5029   655              76     -16.5483440  -17.04217  2.98%  54.0    4s
* 5049   655              68     -16.5490568  -17.04217  2.98%  53.8    4s
* 5373   731              77     -16.5718426  -17.04217  2.84%  53.2    4s
* 5512   727              87     -16.5718440  -17.04217  2.84%  52.9    4s
* 5513   727              87     -16.5718446  -17.04217  2.84%  52.9    4s
* 5514   727              86     -16.5718451  -17.04217  2.84%  52.9    4s
* 5515   727              85     -16.5718458  -17.04217  2.84%  52.9    4s
* 5825   857              58     -16.5718690  -17.04217  2.84%  52.1    4s
* 5826   857              58     -16.5718739  -17.04217  2.84%  52.1    4s
* 6800  1342              76     -16.5719799  -17.04217  2.84%  49.0    4s
* 7034  1478              65     -16.5719836  -17.04217  2.84%  48.1    4s
* 7035  1478              65     -16.5719916  -17.04217  2.84%  48.1    4s
  7140  1706  -16.58131   26   61  -16.57199  -17.04217  2.84%  47.6    5s
* 7185  1706              70     -16.5721687  -17.04217  2.84%  47.5    5s
* 7186  1706              70     -16.5721845  -17.04217  2.84%  47.5    5s
* 7190  1706              71     -16.5721888  -17.04217  2.84%  47.4    5s
* 7492  1945              91     -16.5736980  -16.98003  2.45%  46.1    5s
* 7495  1945              91     -16.5737415  -16.98003  2.45%  46.1    5s
* 7496  1945              91     -16.5737416  -16.98003  2.45%  46.1    5s
* 7805  1983              68     -16.5744141  -16.98003  2.45%  44.9    5s
* 7810  1983              68     -16.5744333  -16.98003  2.45%  44.8    5s
* 7900  1983              65     -16.5745900  -16.98003  2.45%  44.5    5s
* 7902  1983              66     -16.5747469  -16.98003  2.45%  44.5    5s
* 7920  1983              72     -16.5859104  -16.98003  2.38%  44.4    5s
* 8544  1917              76     -16.5864717  -16.87543  1.74%  42.5    5s
* 8624  1917              62     -16.6018339  -16.87543  1.65%  42.2    5s
*10234  1539              70     -16.6019129  -16.86621  1.59%  40.5    5s
*10284  1539              72     -16.6019167  -16.86621  1.59%  40.4    5s
*11061  1535              61     -16.6019275  -16.76676  0.99%  39.2    5s
*11146  1535              58     -16.6019528  -16.76676  0.99%  39.0    5s
*11152  1535              59     -16.6019559  -16.76676  0.99%  39.0    5s
*11614  1506              66     -16.6020344  -16.76676  0.99%  38.0    5s
*11615  1506              66     -16.6020392  -16.76676  0.99%  38.0    5s
*11619  1506              64     -16.6020472  -16.76676  0.99%  38.0    5s
*11718  1506              59     -16.6020725  -16.76676  0.99%  37.8    5s
*11719  1506              59     -16.6020727  -16.76676  0.99%  37.8    5s
*11826  1568              66     -16.6021458  -16.66604  0.38%  37.8    6s
*11950  1568              58     -16.6021825  -16.66604  0.38%  37.5    6s
*11955  1568              60     -16.6022049  -16.66604  0.38%  37.5    6s
*12325  1437              63     -16.6023010  -16.63616  0.20%  36.7    6s
*12355  1437              61     -16.6023560  -16.63616  0.20%  36.7    6s
*12359  1437              62     -16.6023613  -16.63616  0.20%  36.7    6s
*12362  1437              64     -16.6023630  -16.63616  0.20%  36.6    6s
*12363  1437              64     -16.6023642  -16.63616  0.20%  36.6    6s
*12473  1437              63     -16.6024613  -16.63616  0.20%  36.4    6s
*14381   133              62     -16.6024633  -16.61304  0.06%  32.1    6s
*14865    65              62     -16.6024726  -16.60258  0.00%  31.1    6s

Explored 14973 nodes (463474 simplex iterations) in 6.33 seconds
Thread count was 32 (of 72 available processors)

Solution count 10: -16.6025 -16.6025 -16.6025 ... -16.6022

Optimal solution found (tolerance 1.00e-04)
Best objective -1.660247262783e+01, best bound -1.660258408830e+01, gap 0.0007%

User-callback calls 30814, time in user-callback 0.01 sec



objective value: -16.602472627829886
objective bound: -16.60258408829876
x_opt: [0.0, 1.0, 1.0, 0.0, 0.0, 1.0, 1.0, 1.0, 0.0, 0.0, 0.09068555462849608, 0.06382699466816724, 0.0, 1.0, 1.0, 1.0, 0.45396617817133755, 1.0, 0.0, 0.0, 0.0, 1.0, 1.0, 1.0, 0.0, 0.9999999999999999, 1.0, 1.0, 0.0, 0.7645631409886324, 0.7346761694223701, 1.0, 0.37069899750775354, 1.0, 1.0, 1.0, 1.0, 0.635908661604671, 0.9522554186835079, 1.0, 0.9337841038799951, 0.0, 1.0, 0.0, 0.0, 0.9341528311330767, 0.46416110582113657, 0.270395326150495, 0.0, 1.0]
GUROBI solution time: 6.332525014877319

